;; ===================== PROJECTED CANON (QE) =====================
;; Each clause below is entailed by Proj = ∃W.F over the canonical vocabulary.
;; Units appear first for clarity; OR-clauses (SAT-filtered) follow.
;; ==================================================================

;; Unit Bool constraints (entailed)
(assert (not patient_has_diagnosis_of_cardiomyopathy_now))
(assert (not patient_has_diagnosis_of_heart_valve_disorder_now))
(assert (not patient_has_finding_of_myocardial_infarction_inthepast6months))
(assert (not patient_has_finding_of_preinfarction_syndrome_now))
(assert (not patient_has_finding_of_congestive_heart_failure_now))
(assert (not patient_has_diagnosis_of_complete_atrioventricular_block_now))
(assert (not patient_has_diagnosis_of_second_degree_atrioventricular_block_now))
(assert (not patient_has_finding_of_decreased_liver_function_now))
(assert (not patient_has_finding_of_renal_impairment_now))
(assert (not patient_has_diagnosis_of_type_1_diabetes_mellitus_now))
(assert (not patient_is_pregnant_now))
(assert (not patient_is_breastfeeding_now))
(assert (not patient_has_finding_of_allergy_to_nicorandil_now))
(assert (not patient_is_undergoing_calcium_channel_blocker_therapy_now))
(assert (not patient_can_undergo_single_photon_emission_computerized_tomography_now))
